/* Objective function */
min: - 0.0054fpdi - 0.0054fpdo + 0.05apdi + 0.05apdo + 0.0002pi + 0.0002po - 0.5fsi - 0.5fso;

apdi = 0.0 hi + 0.0 li + 11.47831 ri + -0.03571 ci + -1.73873 si + 0.0 ti + 0.08889 fTempIi + 0.03003 ami + -137.56881;
asi = 0.0 hi + 0.0 li + -8e-05 ri + -0.00024 ci + -3e-05 si + -0.0 ti + -0.00014 fTempIi + 0.0003 ami + 0.01744;
aTempOi = 0.0 hi + 0.0 li + 0.31502 ri + -0.20329 ci + -0.04188 si + -0.0 ti + 0.72963 fTempIi + -0.00099 ami + 7.20645;
fpdi = 0.0 hi + 0.0 li + 1.96503 ri + -5.76365 ci + -0.00394 si + -0.0 ti + -0.11884 fTempIi + 7e-05 ami + 55.6282;
fsi = 0.0 hi + -0.0 li + -0.00015 ri + -0.0569 ci + 2e-05 si + -0.0 ti + 0.00067 fTempIi + -0.0 ami + 1.03619;
fTempOi = 0.0 hi + -0.0 li + -0.32029 ri + 0.21175 ci + 0.04209 si + 0.0 ti + 0.27182 fTempIi + -0.00069 ami + 8.49829;
pi = 0.0 hi + 0.0 li + 90.98889 ri + 3.56667 ci + -7.00381 si + 0.0 ti + -0.0 fTempIi + -0.0 ami + 244.4873;

apdo = 0.0 ho + 0.0 lo + 11.66319 ro + 0.01111 co + -2.10675 so + -0.0 to + 0.07982 fTempIo + 0.03708 amo + -169.72838;
aso = 0.0 ho + 0.0 lo + 0.0 ro + 0.0 co + 0.0 so + 0.0 to + 0.0 fTempIo + 0.0003 amo + 0.01;
aTempOo = 0.0 ho + 0.0 lo + -0.28426 ro + 0.05222 co + 0.03501 so + 0.0 to + 0.67764 fTempIo + 0.00105 amo + 2.73147;
fpdo = 0.0 ho + -0.0 lo + 0.52812 ro + -1.17775 co + 0.0013 so + -0.0 to + -0.04396 fTempIo + -2e-05 amo + 19.64008;
fso = 0.0 ho + -0.0 lo + -0.0 ro + -0.023 co + -0.0 so + -0.0 to + -0.0 fTempIo + -0.0 amo + 0.666;
fTempOo = 0.0 ho + 0.0 lo + 0.28814 ro + -0.05413 co + -0.03501 so + -0.0 to + 0.31571 fTempIo + 0.0007 amo + 11.08829;
po = 0.0 ho + 0.0 lo + 100.27083 ro + 3.56667 co + -8.81429 so + -0.0 to + -0.0 fTempIo + 0.0 amo + 186.40238;

/* Variable bounds */
aTempOi > 18.6;
1 =r6i + r8i + r10i + r12i + r14i;
ri =6r6i + 8r8i + 10r10i + 12r12i + 14r14i;
1 =s25i + s30i + s40i;
si =25s25i + 30s30i + 40s40i;
ti = 2;
apdi > 100;
apdi < 300;
asi > 0;
asi < 3;
aTempOi > 5;
aTempOi < 25;
fpdi > 100;
fpdi < 300;
fsi > 0;
fsi < 1.25;
fTempOi > 5;
fTempOi < 25;
pi > 0;
ri > 6;
ri < 14;
ci > 1;
ci < 11;
si > 25;
si < 60;
ti > 1;
ti < 3;
fTempIi > 5;
fTempIi < 25;

/* aTempOo < 11.4; */
1 =r6o + r8o + r10o + r12o + r14o;
ro =6r6o + 8r8o + 10r10o + 12r12o + 14r14o;
1 =s25o + s30o + s40o;
so =25s25o + 30s30o + 40s40o;
to = 2;
apdo > 100;
apdo < 300;
aso > 0;
aso < 3;
aTempOo > 5;
aTempOo < 25;
fpdo > 100;
fpdo < 300;
fso > 0;
fso < 1.25;
fTempOo > 5;
fTempOo < 25;
po > 0;
ro > 10;
ro < 14;
co > 13;
co < 60;
so > 25;
so < 60;
to > 1;
to < 3;
fTempIo > 5;
fTempIo < 25;
int hi,li,si,ti,ci,ri,ami;
int ho,lo,so,to,co,ro,amo;
bin s25i,s30i,s40i,s50i,s60i,r6i,r8i,r10i,r12i,r14i;
bin s25o,s30o,s40o,s50o,s60o,r6o,r8o,r10o,r12o,r14o;
